p cnf 144 1
144 0
w 1 0.557014
w 2 1 1
w 2 -1 0
w 3 2 0
w 3 -2 1
w 4 3 0.038262
w 4 -3 0.178902
w 5 4 0.0846059
w 5 -4 0.51967
w 6 5 0.287001
w 6 -5 0.775936
w 7 6 0
w 7 -6 1
w 8 7 0
w 8 -7 1
w 9 8 0.58179
w 9 -8 0.0832135
w 10 9 1
w 10 -9 0
w 11 10 0.695781
w 11 -10 0.0753066
w 12 11 0.0957978
w 12 -11 0.836283
w 13 1 0.420135
w 13 -1 0.393297
w 14 13 2 1
w 14 13 -2 0
w 14 -13 2 1
w 14 -13 -2 1
w 15 14 3 0.381989
w 15 14 -3 0.45365
w 15 -14 3 0.911615
w 15 -14 -3 0.901659
w 16 15 4 0
w 16 15 -4 1
w 16 -15 4 1
w 16 -15 -4 0
w 17 16 5 0.190881
w 17 16 -5 0.407956
w 17 -16 5 0.548265
w 17 -16 -5 0.274094
w 18 17 6 0.217244
w 18 17 -6 0.114897
w 18 -17 6 0.27819
w 18 -17 -6 0.29255
w 19 18 7 0.373987
w 19 18 -7 0.128833
w 19 -18 7 0.983916
w 19 -18 -7 0.794122
w 20 19 8 0.424657
w 20 19 -8 0.510115
w 20 -19 8 0.310878
w 20 -19 -8 0.627744
w 21 20 9 0
w 21 20 -9 1
w 21 -20 9 0
w 21 -20 -9 1
w 22 21 10 0.82635
w 22 21 -10 0.248119
w 22 -21 10 0.588987
w 22 -21 -10 0.0370324
w 23 22 11 0
w 23 22 -11 0
w 23 -22 11 1
w 23 -22 -11 0
w 24 23 12 0.0054164
w 24 23 -12 0.320971
w 24 -23 12 0.616904
w 24 -23 -12 0.283606
w 25 13 0.615944
w 25 -13 0.657594
w 26 25 14 0.59986
w 26 25 -14 0.451716
w 26 -25 14 0.264484
w 26 -25 -14 0.0245168
w 27 26 15 0.575362
w 27 26 -15 0.652261
w 27 -26 15 0.183633
w 27 -26 -15 0.713249
w 28 27 16 0.859086
w 28 27 -16 0.762752
w 28 -27 16 0.573386
w 28 -27 -16 0.685436
w 29 28 17 1
w 29 28 -17 0
w 29 -28 17 1
w 29 -28 -17 0
w 30 29 18 0.448931
w 30 29 -18 0.821562
w 30 -29 18 0.452389
w 30 -29 -18 0.454347
w 31 30 19 1
w 31 30 -19 0
w 31 -30 19 1
w 31 -30 -19 1
w 32 31 20 1
w 32 31 -20 0
w 32 -31 20 0
w 32 -31 -20 0
w 33 32 21 1
w 33 32 -21 0
w 33 -32 21 0
w 33 -32 -21 1
w 34 33 22 1
w 34 33 -22 0
w 34 -33 22 1
w 34 -33 -22 0
w 35 34 23 0.825125
w 35 34 -23 0.359627
w 35 -34 23 0.259718
w 35 -34 -23 0.851048
w 36 35 24 0
w 36 35 -24 1
w 36 -35 24 0
w 36 -35 -24 0
w 37 25 0.0415558
w 37 -25 0.73178
w 38 37 26 0
w 38 37 -26 0
w 38 -37 26 1
w 38 -37 -26 1
w 39 38 27 0.73509
w 39 38 -27 0.0589076
w 39 -38 27 0.0117247
w 39 -38 -27 0.544184
w 40 39 28 1
w 40 39 -28 0
w 40 -39 28 1
w 40 -39 -28 0
w 41 40 29 0
w 41 40 -29 0
w 41 -40 29 1
w 41 -40 -29 1
w 42 41 30 1
w 42 41 -30 1
w 42 -41 30 0
w 42 -41 -30 1
w 43 42 31 0
w 43 42 -31 1
w 43 -42 31 1
w 43 -42 -31 1
w 44 43 32 0.485677
w 44 43 -32 0.969999
w 44 -43 32 0.207074
w 44 -43 -32 0.373504
w 45 44 33 1
w 45 44 -33 0
w 45 -44 33 1
w 45 -44 -33 0
w 46 45 34 0.722083
w 46 45 -34 0.894509
w 46 -45 34 0.189689
w 46 -45 -34 0.170747
w 47 46 35 0
w 47 46 -35 1
w 47 -46 35 1
w 47 -46 -35 1
w 48 47 36 0.441046
w 48 47 -36 0.690075
w 48 -47 36 0.4608
w 48 -47 -36 0.672856
w 49 37 0
w 49 -37 1
w 50 49 38 0.144142
w 50 49 -38 0.693267
w 50 -49 38 0.97608
w 50 -49 -38 0.9342
w 51 50 39 0
w 51 50 -39 0
w 51 -50 39 1
w 51 -50 -39 0
w 52 51 40 1
w 52 51 -40 0
w 52 -51 40 1
w 52 -51 -40 0
w 53 52 41 0
w 53 52 -41 0
w 53 -52 41 0
w 53 -52 -41 1
w 54 53 42 1
w 54 53 -42 1
w 54 -53 42 1
w 54 -53 -42 0
w 55 54 43 0
w 55 54 -43 0
w 55 -54 43 1
w 55 -54 -43 0
w 56 55 44 0.562145
w 56 55 -44 0.506388
w 56 -55 44 0.239157
w 56 -55 -44 0.538226
w 57 56 45 1
w 57 56 -45 1
w 57 -56 45 0
w 57 -56 -45 1
w 58 57 46 0.632321
w 58 57 -46 0.631593
w 58 -57 46 0.233414
w 58 -57 -46 0.603691
w 59 58 47 0.492513
w 59 58 -47 0.46957
w 59 -58 47 0.448924
w 59 -58 -47 0.92236
w 60 59 48 0.530845
w 60 59 -48 0.785872
w 60 -59 48 0.471978
w 60 -59 -48 0.117152
w 61 49 1
w 61 -49 0
w 62 61 50 1
w 62 61 -50 0
w 62 -61 50 0
w 62 -61 -50 0
w 63 62 51 0.262168
w 63 62 -51 0.80216
w 63 -62 51 0.416402
w 63 -62 -51 0.702756
w 64 63 52 1
w 64 63 -52 1
w 64 -63 52 1
w 64 -63 -52 0
w 65 64 53 0.822403
w 65 64 -53 0.830518
w 65 -64 53 0.520629
w 65 -64 -53 0.767817
w 66 65 54 1
w 66 65 -54 1
w 66 -65 54 0
w 66 -65 -54 0
w 67 66 55 0.0312637
w 67 66 -55 0.289602
w 67 -66 55 0.864738
w 67 -66 -55 0.202356
w 68 67 56 0.258271
w 68 67 -56 0.219469
w 68 -67 56 0.16321
w 68 -67 -56 0.0140507
w 69 68 57 0.0413871
w 69 68 -57 0.276219
w 69 -68 57 0.584632
w 69 -68 -57 0.457789
w 70 69 58 0.804893
w 70 69 -58 0.358496
w 70 -69 58 0.263592
w 70 -69 -58 0.995704
w 71 70 59 0.18053
w 71 70 -59 0.818107
w 71 -70 59 0.786119
w 71 -70 -59 0.701159
w 72 71 60 0.109151
w 72 71 -60 0.691359
w 72 -71 60 0.802665
w 72 -71 -60 0.354542
w 73 61 0.550251
w 73 -61 0.385806
w 74 73 62 0.414989
w 74 73 -62 0.588162
w 74 -73 62 0.645764
w 74 -73 -62 0.67326
w 75 74 63 0.808975
w 75 74 -63 0.687311
w 75 -74 63 0.590103
w 75 -74 -63 0.850362
w 76 75 64 0.174735
w 76 75 -64 0.308151
w 76 -75 64 0.942504
w 76 -75 -64 0.979628
w 77 76 65 0.206096
w 77 76 -65 0.975332
w 77 -76 65 0.622248
w 77 -76 -65 0.386626
w 78 77 66 0.408367
w 78 77 -66 0.0877859
w 78 -77 66 0.379363
w 78 -77 -66 0.517518
w 79 78 67 0.182028
w 79 78 -67 0.87206
w 79 -78 67 0.288128
w 79 -78 -67 0.732279
w 80 79 68 1
w 80 79 -68 0
w 80 -79 68 1
w 80 -79 -68 1
w 81 80 69 0.65366
w 81 80 -69 0.541453
w 81 -80 69 0.50784
w 81 -80 -69 0.243763
w 82 81 70 1
w 82 81 -70 1
w 82 -81 70 0
w 82 -81 -70 1
w 83 82 71 0
w 83 82 -71 0
w 83 -82 71 1
w 83 -82 -71 0
w 84 83 72 1
w 84 83 -72 1
w 84 -83 72 0
w 84 -83 -72 0
w 85 73 0.873527
w 85 -73 0.728286
w 86 85 74 0.161655
w 86 85 -74 0.460566
w 86 -85 74 0.0446711
w 86 -85 -74 0.248368
w 87 86 75 0.890699
w 87 86 -75 0.980846
w 87 -86 75 0.428363
w 87 -86 -75 0.544359
w 88 87 76 0.936203
w 88 87 -76 0.788122
w 88 -87 76 0.914113
w 88 -87 -76 0.407572
w 89 88 77 0
w 89 88 -77 1
w 89 -88 77 0
w 89 -88 -77 0
w 90 89 78 1
w 90 89 -78 1
w 90 -89 78 1
w 90 -89 -78 0
w 91 90 79 1
w 91 90 -79 1
w 91 -90 79 1
w 91 -90 -79 0
w 92 91 80 0
w 92 91 -80 0
w 92 -91 80 1
w 92 -91 -80 1
w 93 92 81 0.488042
w 93 92 -81 0.00370178
w 93 -92 81 0.806793
w 93 -92 -81 0.916404
w 94 93 82 0.329092
w 94 93 -82 0.852607
w 94 -93 82 0.336182
w 94 -93 -82 0.243205
w 95 94 83 1
w 95 94 -83 1
w 95 -94 83 0
w 95 -94 -83 1
w 96 95 84 0.125748
w 96 95 -84 0.807529
w 96 -95 84 0.971056
w 96 -95 -84 0.270845
w 97 85 1
w 97 -85 0
w 98 97 86 0.455836
w 98 97 -86 0.929375
w 98 -97 86 0.381843
w 98 -97 -86 0.524167
w 99 98 87 0.262051
w 99 98 -87 0.63717
w 99 -98 87 0.332899
w 99 -98 -87 0.750092
w 100 99 88 0.139692
w 100 99 -88 0.666497
w 100 -99 88 0.188932
w 100 -99 -88 0.468784
w 101 100 89 0.525114
w 101 100 -89 0.711989
w 101 -100 89 0.779283
w 101 -100 -89 0.0679161
w 102 101 90 0.860909
w 102 101 -90 0.215462
w 102 -101 90 0.40725
w 102 -101 -90 0.383952
w 103 102 91 0
w 103 102 -91 1
w 103 -102 91 1
w 103 -102 -91 1
w 104 103 92 0.574257
w 104 103 -92 0.844925
w 104 -103 92 0.797834
w 104 -103 -92 0.9561
w 105 104 93 1
w 105 104 -93 0
w 105 -104 93 1
w 105 -104 -93 1
w 106 105 94 0.647134
w 106 105 -94 0.777378
w 106 -105 94 0.63474
w 106 -105 -94 0.836066
w 107 106 95 0
w 107 106 -95 1
w 107 -106 95 1
w 107 -106 -95 1
w 108 107 96 0
w 108 107 -96 0
w 108 -107 96 1
w 108 -107 -96 1
w 109 97 0
w 109 -97 1
w 110 109 98 0
w 110 109 -98 1
w 110 -109 98 1
w 110 -109 -98 0
w 111 110 99 1
w 111 110 -99 0
w 111 -110 99 1
w 111 -110 -99 1
w 112 111 100 0.346334
w 112 111 -100 0.758824
w 112 -111 100 0.14176
w 112 -111 -100 0.314577
w 113 112 101 1
w 113 112 -101 0
w 113 -112 101 0
w 113 -112 -101 1
w 114 113 102 1
w 114 113 -102 0
w 114 -113 102 1
w 114 -113 -102 0
w 115 114 103 0.830323
w 115 114 -103 0.676859
w 115 -114 103 0.585551
w 115 -114 -103 0.00831092
w 116 115 104 0.735006
w 116 115 -104 0.541306
w 116 -115 104 0.260454
w 116 -115 -104 0.273549
w 117 116 105 0.432536
w 117 116 -105 0.657019
w 117 -116 105 0.142048
w 117 -116 -105 0.560719
w 118 117 106 1
w 118 117 -106 1
w 118 -117 106 0
w 118 -117 -106 1
w 119 118 107 0
w 119 118 -107 0
w 119 -118 107 1
w 119 -118 -107 0
w 120 119 108 0.274106
w 120 119 -108 0.419588
w 120 -119 108 0.995774
w 120 -119 -108 0.310393
w 121 109 0
w 121 -109 1
w 122 121 110 1
w 122 121 -110 1
w 122 -121 110 0
w 122 -121 -110 0
w 123 122 111 0.690333
w 123 122 -111 0.051829
w 123 -122 111 0.240757
w 123 -122 -111 0.633094
w 124 123 112 0
w 124 123 -112 1
w 124 -123 112 1
w 124 -123 -112 0
w 125 124 113 0
w 125 124 -113 1
w 125 -124 113 1
w 125 -124 -113 0
w 126 125 114 1
w 126 125 -114 1
w 126 -125 114 0
w 126 -125 -114 0
w 127 126 115 0.286094
w 127 126 -115 0.784265
w 127 -126 115 0.929209
w 127 -126 -115 0.737983
w 128 127 116 0
w 128 127 -116 1
w 128 -127 116 1
w 128 -127 -116 0
w 129 128 117 0.630324
w 129 128 -117 0.909286
w 129 -128 117 0.709935
w 129 -128 -117 0.871081
w 130 129 118 0.1943
w 130 129 -118 0.768856
w 130 -129 118 0.317522
w 130 -129 -118 0.239383
w 131 130 119 0
w 131 130 -119 0
w 131 -130 119 0
w 131 -130 -119 1
w 132 131 120 0
w 132 131 -120 1
w 132 -131 120 1
w 132 -131 -120 0
w 133 121 0.32881
w 133 -121 0.754693
w 134 133 122 0
w 134 133 -122 1
w 134 -133 122 0
w 134 -133 -122 0
w 135 134 123 0.546899
w 135 134 -123 0.0175113
w 135 -134 123 0.161219
w 135 -134 -123 0.456185
w 136 135 124 0.0322997
w 136 135 -124 0.998565
w 136 -135 124 0.921745
w 136 -135 -124 0.801156
w 137 136 125 1
w 137 136 -125 1
w 137 -136 125 0
w 137 -136 -125 1
w 138 137 126 1
w 138 137 -126 1
w 138 -137 126 1
w 138 -137 -126 0
w 139 138 127 1
w 139 138 -127 0
w 139 -138 127 0
w 139 -138 -127 1
w 140 139 128 0.014755
w 140 139 -128 0.7474
w 140 -139 128 0.824149
w 140 -139 -128 0.342701
w 141 140 129 1
w 141 140 -129 1
w 141 -140 129 1
w 141 -140 -129 0
w 142 141 130 0.548562
w 142 141 -130 0.34435
w 142 -141 130 0.773508
w 142 -141 -130 0.349718
w 143 142 131 0.934636
w 143 142 -131 0.227086
w 143 -142 131 0.715311
w 143 -142 -131 0.287284
w 144 143 132 0.718119
w 144 143 -132 0.00521478
w 144 -143 132 0.687858
w 144 -143 -132 0.585033